files/upTests/__reps/ExplicitVarSizeWithMarker/ofTuples/0001.eprime
language ESSENCE' 1.0

find s_SetExplicitVarSize_tuple1: matrix indexed by [int(1..5)] of bool
find s_SetExplicitVarSize_tuple2_tuple1:
        matrix indexed by [int(1..5)] of int(1..4)
find s_SetExplicitVarSize_tuple2_tuple2:
        matrix indexed by [int(1..5)] of int(1..3)
such that
    (sum v__0 : int(1..5) . s_SetExplicitVarSize_tuple1[v__0]) >= 1,
    exists v__0 : int(1..5)
        . s_SetExplicitVarSize_tuple1[v__0]
          /\
          (s_SetExplicitVarSize_tuple2_tuple1[v__0] = 1
           /\
           s_SetExplicitVarSize_tuple2_tuple2[v__0] = 2),
    exists v__0 : int(1..5)
        . s_SetExplicitVarSize_tuple1[v__0]
          /\
          (s_SetExplicitVarSize_tuple2_tuple1[v__0] = 2
           /\
           s_SetExplicitVarSize_tuple2_tuple2[v__0] = 3),
    exists v__0 : int(1..5)
        . s_SetExplicitVarSize_tuple1[v__0]
          /\
          (s_SetExplicitVarSize_tuple2_tuple1[v__0] = 4
           /\
           s_SetExplicitVarSize_tuple2_tuple2[v__0] = 1),
    forAll v__0 : int(1..4)
        . s_SetExplicitVarSize_tuple1[v__0] /\ s_SetExplicitVarSize_tuple1[v__0 + 1]
          ->
          s_SetExplicitVarSize_tuple2_tuple1[v__0]
          <
          s_SetExplicitVarSize_tuple2_tuple1[v__0 + 1]
          \/
          s_SetExplicitVarSize_tuple2_tuple1[v__0]
          =
          s_SetExplicitVarSize_tuple2_tuple1[v__0 + 1]
          /\
          s_SetExplicitVarSize_tuple2_tuple2[v__0]
          <
          s_SetExplicitVarSize_tuple2_tuple2[v__0 + 1],
    forAll v__0 : int(1..4)
        . s_SetExplicitVarSize_tuple1[v__0] >= s_SetExplicitVarSize_tuple1[v__0 + 1],
    forAll v__0 : int(1..5)
        . s_SetExplicitVarSize_tuple1[v__0]
          ->
          2 = s_SetExplicitVarSize_tuple2_tuple1[v__0]
          /\
          3 = s_SetExplicitVarSize_tuple2_tuple2[v__0]
          \/
          1 = s_SetExplicitVarSize_tuple2_tuple1[v__0]
          /\
          2 = s_SetExplicitVarSize_tuple2_tuple2[v__0]
          \/
          4 = s_SetExplicitVarSize_tuple2_tuple1[v__0]
          /\
          1 = s_SetExplicitVarSize_tuple2_tuple2[v__0]
