files/upTests/__reps/ExplicitVarSizeWithMarker/ofTuples/0001.eprime.solution
language ESSENCE' 1.0
$ minion Nodes: 5
$ minion TotalTime: 0.003274
$ Savile Row TotalTime: 0.396
letting s_SetExplicitVarSize_tuple1 be [true, true, true, false, false;int(1..5)]
letting s_SetExplicitVarSize_tuple2_tuple2 be [2, 3, 1, 1, 1;int(1..5)]
letting s_SetExplicitVarSize_tuple2_tuple1 be [1, 2, 4, 1, 1;int(1..5)]
